NAME : optical-integer.pruned_local_16.-16743489.tour
COMMENT : Length = -16743489
TYPE : TOUR
DIMENSION : 174
TOUR_SECTION
166
162
163
164
160
149
148
144
145
146
147
142
143
141
140
138
139
167
137
132
133
134
130
122
128
123
124
125
126
101
129
99
165
173
127
135
169
131
100
106
110
118
120
117
102
115
112
111
96
93
91
89
87
85
98
81
79
77
75
73
71
69
67
65
63
61
59
60
62
64
66
68
70
72
74
76
78
80
82
83
84
86
54
52
53
55
56
57
58
94
27
26
24
22
20
18
16
14
12
10
8
6
7
9
11
13
15
17
19
21
23
25
49
46
44
42
40
38
36
34
32
30
28
29
31
33
35
37
5
4
3
1
2
39
41
43
45
47
50
51
88
90
92
95
107
109
104
105
108
113
114
116
119
97
103
121
48
159
174
161
136
158
155
153
151
152
150
154
156
157
168
172
171
170
-1
EOF
